c  s526n
c  24 inputs
c  27 outputs
c  54 inverters
c  140 gates ( 55 ANDs + 22 NANDs + 28 ORs + 35 NORs )
cc labels (1 G22) (2 G29) (3 G2) (4 G1) (5 G13) (6 G30) (7 G15) (8 G14) (9 G11) (10 G10) (11 G19) (12 G20) (13 G21) (14 G12) (15 G16) (16 G17) (17 G18) (18 G0) (19 G28) (20 G27) (21 G26) (22 G25) (23 G24) (24 G23) (25 G157) (26 G159) (27 G158) (28 G187) (29 G156) (30 G155) (31 G185) (32 G186) (33 G183) (34 G162) (35 G161) (36 G160) (37 G197) (38 G195) (39 G196) (40 G194) (41 G192) (42 G154) (43 G153) (44 G152) (45 G190) (46 G191) (47 G188) (48 G151) (49 G150) (50 G149) (51 G182) (52 G180) (53 G181) (54 G179) (55 G189) (56 G166) (57 G163) (58 G165) (59 G164) (60 G178) (61 G176) (62 G174) (63 G175) (64 G173) (65 G144) (66 G143) (67 G193) (68 G172) (69 G171) (70 G177) (71 G184) (72 G170) (73 G168) (74 G169) (75 G167) (76 G58) (77 G57) (78 G114) (79 G111) (80 G110) (81 I268) (82 G56) (83 G55) (84 G54) (85 G113) (86 G109) (87 G106) (88 G52) (89 G51) (90 G105) (91 G103) (92 G102) (93 G101) (94 G45) (95 G44) (96 G95) (97 G93) (98 G91) (99 G92) (100 G89) (101 G50) (102 G49) (103 G48) (104 G100) (105 G99) (106 G47) (107 G46) (108 G97) (109 G94) (110 G108) (111 G98) (112 G96) (113 G126) (114 G121) (115 G120) (116 G53) (117 G118) (118 G117) (119 G119) (120 G115) (121 G135) (122 G146) (123 G145) (124 G139) (125 G136) (126 G142) (127 G141) (128 G140) (129 G138) (130 G137) (131 G204) (132 G202) (133 I351) (134 G205) (135 G201) (136 G203) (137 G200) (138 G210) (139 G208) (140 I362) (141 G212) (142 G207) (143 G209) (144 G206) (145 G59) (146 G43) (147 G42) (148 G88) (149 G86) (150 G87) (151 G84) (152 G82) (153 G81) (154 G80) (155 G79) (156 G78) (157 G77) (158 G76) (159 G61) (160 G60) (161 G112) (162 G37) (163 G41) (164 G40) (165 G39) (166 G38) (167 G73) (168 G75) (169 G70) (170 G74) (171 G69) (172 G34) (173 G132) (174 G134) (175 G72) (176 G33) (177 G83) (178 G85) (179 G31) (180 G32) (181 G130) (182 G129) (183 G128) (184 G133) (185 G127) (186 G125) (187 G124) (188 G131) (189 G123) (190 G122) (191 G36) (192 G66) (193 G68) (194 G90) (195 G107) (196 G35) (197 G71) (198 G65) (199 G64) (200 G116) (201 G104) (202 G63) (203 I359) (204 G211) (205 G67) (206 G62) (207 I368) (208 G214) (209 I365) (210 G213) (211 I343) (212 G199) (213 I340) (214 G198) (215 I288) (216 G148) (217 I285) (218 G147)
cc inputs 1 2 3 4 5 6 7 8 9 10 11 12 13 14 15 16 17 18 19 20 21 22 23 24 
cc outputs 218 216 214 212 210 208 206 185 171 160 159 155 151 144 137 130 120 112 100 93 87 75 64 54 47 40 33 
p cnf 218 639
217 218 0
-217 -218 0
24 217 0
-24 -217 0
215 216 0
-215 -216 0
23 215 0
-23 -215 0
213 214 0
-213 -214 0
22 213 0
-22 -213 0
211 212 0
-211 -212 0
21 211 0
-21 -211 0
209 210 0
-209 -210 0
20 209 0
-20 -209 0
207 208 0
-207 -208 0
19 207 0
-19 -207 0
-206 -205 -193 0
206 205 0
206 193 0
-205 204 202 199 197 0
205 -204 0
205 -202 0
205 -199 0
205 -197 0
203 204 0
-203 -204 0
18 203 0
-18 -203 0
-202 -201 -200 -15 0
202 201 0
202 200 0
202 15 0
17 201 0
-17 -201 0
16 200 0
-16 -200 0
-199 -198 -13 -12 -11 0
199 198 0
199 13 0
199 12 0
199 11 0
14 198 0
-14 -198 0
197 196 6 0
-197 -196 0
-197 -6 0
196 -10 -195 -194 -7 0
-196 10 0
-196 195 0
-196 194 0
-196 7 0
9 195 0
-9 -195 0
8 194 0
-8 -194 0
-193 198 204 192 0
193 -198 0
193 -204 0
193 -192 0
192 191 188 187 186 0
-192 -191 0
-192 -188 0
-192 -187 0
-192 -186 0
191 -190 -189 0
-191 190 0
-191 189 0
6 190 0
-6 -190 0
-189 -7 -194 -195 -10 0
189 7 0
189 194 0
189 195 0
189 10 0
13 188 0
-13 -188 0
12 187 0
-12 -187 0
-186 -11 -201 -200 -15 0
186 11 0
186 201 0
186 200 0
186 15 0
-185 -184 -174 0
185 184 0
185 174 0
-184 204 183 182 181 0
184 -204 0
184 -183 0
184 -182 0
184 -181 0
-183 -200 -15 0
183 200 0
183 15 0
-182 -188 -12 -11 -201 0
182 188 0
182 12 0
182 11 0
182 201 0
-181 -180 -176 0
181 180 0
181 176 0
-180 6 179 0
180 -6 0
180 -179 0
179 178 8 9 177 0
-179 -178 0
-179 -8 0
-179 -9 0
-179 -177 0
7 178 0
-7 -178 0
10 177 0
-10 -177 0
-176 175 14 0
176 -175 0
176 -14 0
5 175 0
-5 -175 0
-174 188 204 173 0
174 -188 0
174 -204 0
174 -173 0
173 172 187 186 0
-173 -172 0
-173 -187 0
-173 -186 0
172 -190 -189 0
-172 190 0
-172 189 0
-171 -170 -168 0
171 170 0
171 168 0
-170 204 186 169 197 0
170 -204 0
170 -186 0
170 -169 0
170 -197 0
-169 -175 -14 -13 -12 0
169 175 0
169 14 0
169 13 0
169 12 0
-168 175 204 167 0
168 -175 0
168 -204 0
168 -167 0
167 166 165 164 163 0
-167 -166 0
-167 -165 0
-167 -164 0
-167 -163 0
166 -190 -189 0
-166 190 0
-166 189 0
165 -198 -13 0
-165 198 0
-165 13 0
164 -14 -188 0
-164 14 0
-164 188 0
-163 -201 -200 -15 -162 0
163 201 0
163 200 0
163 15 0
163 162 0
162 187 161 0
-162 -187 0
-162 -161 0
11 161 0
-11 -161 0
160 10 204 0
-160 -10 0
-160 -204 0
159 158 157 156 204 0
-159 -158 0
-159 -157 0
-159 -156 0
-159 -204 0
158 -10 -194 -7 0
-158 10 0
-158 194 0
-158 7 0
157 -10 -9 0
-157 10 0
-157 9 0
156 -177 -195 0
-156 177 0
-156 195 0
155 154 153 152 204 0
-155 -154 0
-155 -153 0
-155 -152 0
-155 -204 0
154 -10 -9 -8 0
-154 10 0
-154 9 0
-154 8 0
153 -177 -194 0
-153 177 0
-153 194 0
152 -195 -194 0
-152 195 0
-152 194 0
151 150 148 0
-151 -150 0
-151 -148 0
150 -178 -149 0
-150 178 0
-150 149 0
-149 -8 -9 -10 0
149 8 0
149 9 0
149 10 0
-148 -147 -146 -145 0
148 147 0
148 146 0
148 145 0
-147 177 195 194 178 0
147 -177 0
147 -195 0
147 -194 0
147 -178 0
-146 177 9 8 0
146 -177 0
146 -9 0
146 -8 0
204 145 0
-204 -145 0
144 143 138 204 0
-144 -143 0
-144 -138 0
-144 -204 0
143 -142 -139 0
-143 142 0
-143 139 0
141 142 0
-141 -142 0
140 141 0
-140 -141 0
4 140 0
-4 -140 0
6 139 0
-6 -139 0
138 -141 -6 0
-138 141 0
-138 6 0
137 136 131 204 0
-137 -136 0
-137 -131 0
-137 -204 0
136 -135 -132 0
-136 135 0
-136 132 0
134 135 0
-134 -135 0
133 134 0
-133 -134 0
3 133 0
-3 -133 0
2 132 0
-2 -132 0
131 -134 -2 0
-131 134 0
-131 2 0
130 129 124 204 0
-130 -129 0
-130 -124 0
-130 -204 0
129 -128 -12 -127 -126 0
-129 128 0
-129 12 0
-129 127 0
-129 126 0
13 128 0
-13 -128 0
2 127 0
-2 -127 0
126 5 125 0
-126 -5 0
-126 -125 0
14 125 0
-14 -125 0
124 -123 -122 0
-124 123 0
-124 122 0
1 123 0
-1 -123 0
-122 -128 -121 -2 -126 0
122 128 0
122 121 0
122 2 0
122 126 0
12 121 0
-12 -121 0
120 119 115 114 113 0
-120 -119 0
-120 -115 0
-120 -114 0
-120 -113 0
119 -200 -15 -118 -117 0
-119 200 0
-119 15 0
-119 118 0
-119 117 0
118 187 161 17 0
-118 -187 0
-118 -161 0
-118 -17 0
-117 -116 -190 0
117 116 0
117 190 0
-116 177 9 8 178 0
116 -177 0
116 -9 0
116 -8 0
116 -178 0
115 -187 -190 -189 0
-115 187 0
-115 190 0
-115 189 0
114 -187 -186 0
-114 187 0
-114 186 0
145 113 0
-145 -113 0
112 111 105 104 0
-112 -111 0
-112 -105 0
-112 -104 0
111 -195 -10 -110 -108 0
-111 195 0
-111 10 0
-111 110 0
-111 108 0
110 109 178 8 0
-110 -109 0
-110 -178 0
-110 -8 0
15 109 0
-15 -109 0
108 107 106 0
-108 -107 0
-108 -106 0
107 -200 -161 0
-107 200 0
-107 161 0
106 -200 -17 0
-106 200 0
-106 17 0
105 -200 -190 -189 0
-105 200 0
-105 190 0
-105 189 0
-104 -103 -102 -101 -145 0
104 103 0
104 102 0
104 101 0
104 145 0
-103 190 109 17 161 0
103 -190 0
103 -109 0
103 -17 0
103 -161 0
-102 190 109 200 0
102 -190 0
102 -109 0
102 -200 0
-101 15 16 0
101 -15 0
101 -16 0
100 99 97 96 0
-100 -99 0
-100 -97 0
-100 -96 0
99 -194 -195 -10 -98 0
-99 194 0
-99 195 0
-99 10 0
-99 98 0
98 109 178 0
-98 -109 0
-98 -178 0
97 -109 -190 -189 0
-97 109 0
-97 190 0
-97 189 0
96 95 94 0
-96 -95 0
-96 -94 0
95 -145 -109 0
-95 145 0
-95 109 0
94 -190 -145 0
-94 190 0
-94 145 0
93 92 91 90 0
-93 -92 0
-93 -91 0
-93 -90 0
92 -17 -16 -15 -117 0
-92 17 0
-92 16 0
-92 15 0
-92 117 0
91 -201 -190 -189 0
-91 201 0
-91 190 0
-91 189 0
90 89 88 0
-90 -89 0
-90 -88 0
89 -145 -15 -16 0
-89 145 0
-89 15 0
-89 16 0
88 -145 -17 0
-88 145 0
-88 17 0
87 86 80 79 78 0
-87 -86 0
-87 -80 0
-87 -79 0
-87 -78 0
86 -195 -10 -110 -85 0
-86 195 0
-86 10 0
-86 110 0
-86 85 0
85 84 83 82 0
-85 -84 0
-85 -83 0
-85 -82 0
84 -16 -201 0
-84 16 0
-84 201 0
83 -200 -17 0
-83 200 0
-83 17 0
81 82 0
-81 -82 0
161 81 0
-161 -81 0
80 -161 -190 -189 0
-80 161 0
-80 190 0
-80 189 0
79 -15 -6 -85 0
-79 15 0
-79 6 0
-79 85 0
78 77 76 0
-78 -77 0
-78 -76 0
77 -145 -15 -16 -17 0
-77 145 0
-77 15 0
-77 16 0
-77 17 0
76 -145 -11 0
-76 145 0
-76 11 0
75 74 72 69 67 0
-75 -74 0
-75 -72 0
-75 -69 0
-75 -67 0
74 -5 -73 0
-74 5 0
-74 73 0
24 73 0
-24 -73 0
72 -71 -70 0
-72 71 0
-72 70 0
14 71 0
-14 -71 0
5 70 0
-5 -70 0
69 -68 -71 0
-69 68 0
-69 71 0
13 68 0
-13 -68 0
67 66 65 0
-67 -66 0
-67 -65 0
66 -128 -12 -127 -126 0
-66 128 0
-66 12 0
-66 127 0
-66 126 0
65 -123 -122 0
-65 123 0
-65 122 0
64 63 61 60 0
-64 -63 0
-64 -61 0
-64 -60 0
63 -62 -14 0
-63 62 0
-63 14 0
23 62 0
-23 -62 0
61 -70 -14 0
-61 70 0
-61 14 0
-60 -59 -58 -56 -55 0
60 59 0
60 58 0
60 56 0
60 55 0
-59 12 13 14 70 0
59 -12 0
59 -13 0
59 -14 0
59 -70 0
-58 57 68 5 0
58 -57 0
58 -68 0
58 -5 0
12 57 0
-12 -57 0
-56 68 70 23 0
56 -68 0
56 -70 0
56 -23 0
67 55 0
-67 -55 0
54 53 51 0
-54 -53 0
-54 -51 0
53 -52 -5 -13 0
-53 52 0
-53 5 0
-53 13 0
22 52 0
-22 -52 0
-51 -50 -49 -48 -55 0
51 50 0
51 49 0
51 48 0
51 55 0
-50 12 13 14 70 0
50 -12 0
50 -13 0
50 -14 0
50 -70 0
-49 71 22 0
49 -71 0
49 -22 0
-48 71 5 0
48 -71 0
48 -5 0
47 46 41 0
-47 -46 0
-47 -41 0
46 -55 -45 0
-46 55 0
-46 45 0
-45 -44 -43 -42 -5 0
45 44 0
45 43 0
45 42 0
45 5 0
-44 57 13 14 0
44 -57 0
44 -13 0
44 -14 0
-43 68 20 0
43 -68 0
43 -20 0
-42 71 20 0
42 -71 0
42 -20 0
41 -17 -67 0
-41 17 0
-41 67 0
40 39 37 0
-40 -39 0
-40 -37 0
39 -38 -5 0
-39 38 0
-39 5 0
19 38 0
-19 -38 0
-37 -36 -35 -34 -55 0
37 36 0
37 35 0
37 34 0
37 55 0
-36 71 5 0
36 -71 0
36 -5 0
-35 12 5 0
35 -12 0
35 -5 0
-34 13 14 0
34 -13 0
34 -14 0
33 32 28 0
-33 -32 0
-33 -28 0
32 -71 -55 -31 0
-32 71 0
-32 55 0
-32 31 0
31 30 29 0
-31 -30 0
-31 -29 0
30 -13 -5 -21 0
-30 13 0
-30 5 0
-30 21 0
29 -57 -68 -5 0
-29 57 0
-29 68 0
-29 5 0
-28 -27 -26 0
28 27 0
28 26 0
-27 67 71 70 21 0
27 -67 0
27 -71 0
27 -70 0
27 -21 0
-26 55 25 0
26 -55 0
26 -25 0
17 25 0
-17 -25 0
%
0